c --- [ banner ] -------------------------------------------------------------
c 
c CaDiCaL Radically Simplified CDCL SAT Solver
c Copyright (c) 2016-2021 A. Biere, M. Fleury, N. Froleyks
c 
c Version 1.5.2 ca9bff05c11bde5eae4912f9932871d1527e61d8
c g++ (GCC) 9.3.0 -Wall -Wextra -O3 -DNDEBUG
c Thu Jul 28 23:42:48 EDT 2022 Linux gra-login3 3.10.0-1160.66.1.el7.x86_64 x86_64
c 
c --- [ limit ] --------------------------------------------------------------
c 
c setting conflict limit to 200000 conflicts (due to '200000')
c 
c --- [ parsing input ] ------------------------------------------------------
c 
c reading DIMACS file from '23.cubes725.adj'
c opening file to read '23.cubes725.adj'
c found 'p cnf 5320 914898' header
c parsed 914898 clauses in 8.32 seconds process time
c closing file '23.cubes725.adj'
c after reading 637830030 bytes 608.3 MB
c 
c --- [ options ] ------------------------------------------------------------
c 
c all options are set to their default value
c 
c --- [ solving ] ------------------------------------------------------------
c 
c time measured in process time since initialization
c 
c  seconds   reductions  redundant  irredundant
c          MB    restarts       trail      variables
c           level   conflicts       glue        remaining
c 
c *  8.32 631  0 0   0    0    0  0% 0 914847 2099 39%
c {  8.82 655  0 0   0    0    0  0% 0 914847 2099 39%
c i  9.07 664 233 0   0   11    9 18% 3 914847 2091 39%
c i 10.54 705 517 0   4   50   45 29% 9 914847 2078 39%
c i 10.96 707 374 0  10   75   58 26% 8 914847 2077 39%
c i 11.17 708 327 0  11   90   69 26% 9 914847 2076 39%
c i 11.96 715 255 0  20  124  101 26% 14 914847 2075 39%
c i 12.91 721 183 0  37  199  151 25% 21 914847 2074 39%
c i 13.09 722 180 0  39  205  156 25% 21 914847 2073 39%
c i 13.56 723 173 0  45  227  177 25% 21 914847 2069 39%
c i 14.03 724 168 0  47  255  202 25% 22 914847 2068 39%
c i 14.14 724 162 0  50  265  211 25% 22 914847 2067 39%
c - 16.89 696 150 1  58  300  240 25% 22 273359 2067 39%
c i 17.07 670 146 1  58  309  247 25% 22 273359 2066 39%
c i 17.99 670 107 1  61  464  375 25% 21 273359 2065 39%
c i 18.61 671 102 1  69  538  439 25% 21 273359 2064 39%
c i 19.19 672 96 1  86  620  511 26% 23 273359 2063 39%
c i 19.89 673 97 1  95  670  554 26% 23 273359 2062 39%
c } 23.07 675 86 1 141 1002  819 26% 25 273359 2062 39%
c [ 23.07 675  0 1 141 1002  819  0% 0 273359 2062 39%
c 
c  seconds   reductions  redundant  irredundant
c          MB    restarts       trail      variables
c           level   conflicts       glue        remaining
c 
c O 23.08 675  0 1 141 1003  819 13% 0 273359 2062 39%
c i 23.08 675  0 1 141 1003  819 13% 0 273359 2060 39%
c i 23.08 675  0 1 141 1004  819 11% 0 273359 2036 38%
c i 23.10 675  1 1 141 1009  823 11% 1 273359 1977 37%
c i 23.58 675 38 1 141 1103  904 29% 24 273359 1976 37%
c - 24.20 788 39 2 141 1163  859 30% 25 271706 1976 37%
c i 24.39 788 37 2 141 1194  883 29% 25 271706 1975 37%
c i 24.83 788 29 2 141 1454 1079 30% 21 271706 1974 37%
c i 24.85 788 28 2 141 1483 1101 30% 21 271706 1973 37%
c i 25.11 788 26 2 141 1938 1429 29% 21 271706 1972 37%
c - 25.78 788 28 3 142 2453 1389 30% 23 271694 1972 37%
c i 26.22 787 27 3 142 2652 1531 52% 22 271694 1971 37%
c i 26.43 787 26 3 142 2973 1766 51% 22 271694 1970 37%
c ] 26.45 787 26 3 142 3002 1786 51% 22 271694 1970 37%
c { 26.45 787 86 3 142 3002 1786 69% 25 271694 1970 37%
c F 26.48 787 85 3 142 3004 1788 69% 25 271694 1970 37%
c i 26.52 787 85 3 142 3005 1788 69% 25 271694 1969 37%
c i 27.02 787 80 3 147 3125 1874 67% 25 271694 1968 37%
c i 28.33 787 78 3 171 3319 2026 63% 24 271694 1961 37%
c i 29.27 787 75 3 193 3546 2212 60% 24 271694 1953 37%
c 
c  seconds   reductions  redundant   irredundant
c          MB    restarts       trail       variables
c           level   conflicts       glue         remaining
c 
c i 29.45 787 71 3 196 3669 2317 59% 24 271694 1952 37%
c - 30.25 784 60 4 199 4173 1994 57% 23 271429 1952 37%
c i 32.96 784 57 4 259 4772 2454 56% 23 271429 1951 37%
c i 33.25 784 56 4 261 4850 2515 55% 23 271429 1950 37%
c 2 33.95 784 55 4 261 5000 3884 55% 23 271415 1946 37%
c p 40.97 784 55 4 261 5000 7014 55% 23 271415 1906 36%
c d 41.40 784 55 4 261 5000 6898 55% 23 271303 1904 36%
c # 43.50 783 47 4 264 6008 7626 54% 21 271303 1904 36%
c - 44.39 778 45 5 264 6324 2869 54% 21 271303 1904 36%
c } 45.03 778 42 5 267 7002 3307 53% 20 271303 1904 36%
c [ 45.03 778 26 5 267 7002 3307 51% 22 271303 1904 36%
c - 46.71 778 22 6 268 8905 2943 51% 18 271303 1904 36%
c I 47.48 778 21 6 269 10010 3533 51% 18 271303 1904 36%
c - 49.80 778 23 7 271 11915 3349 52% 20 271303 1904 36%
c ] 51.46 778 26 7 272 15002 5382 53% 23 271303 1904 36%
c { 51.46 778 42 7 272 15002 5382 53% 20 271303 1904 36%
c p 53.51 778 42 7 272 15002 9377 53% 20 271303 1904 36%
c B 53.83 778 42 7 272 15012 9387 53% 20 271303 1904 36%
c - 54.57 779 40 8 284 15355 4043 53% 20 271303 1904 36%
c s 55.87 779 33 8 285 17537 5203 53% 17 270335 1904 36%
c 
c  seconds   reductions   redundant   irredundant
c          MB    restarts        trail       variables
c           level    conflicts       glue         remaining
c 
c v 60.26 778 33 8 285 17537 5203 53% 17 270328 1904 36%
c t 60.38 778 33 8 285 17537 5193 53% 17 270318 1904 36%
c e 61.42 780 33 8 285 17537 4984 53% 17 268511 923 17%
c s 61.52 780 33 8 285 17537 4984 53% 17 268415 923 17%
c - 64.05 780 29 9 285 19225 4231 70% 16 268415 923 17%
c W 72.44 780 31 9 594 21014 5659 66% 18 268415 923 17%
c - 79.81 780 31 10 805 23512 5430 66% 18 268415 923 17%
c F 87.26 780 28 10 939 28016 8184 67% 17 268415 923 17%
c - 88.41 780 29 11 962 28227 5704 67% 17 268415 923 17%
c p 92.15 780 28 11 1007 30004 10001 67% 17 268415 923 17%
c } 94.28 780 27 11 1041 31003 10705 67% 17 268415 923 17%
c [ 94.28 780 26 11 1041 31003 10705 113% 23 268415 923 17%
c - 96.04 780 25 12 1041 33372 6966 103% 22 268415 923 17%
c B 97.63 780 25 12 1044 36017 8529 96% 21 268415 923 17%
c - 99.34 781 41 13 1046 38945 7701 92% 32 268415 923 17%
c - 102.47 782 62 14 1048 44945 8787 86% 49 268415 923 17%
c W 104.08 782 62 14 1048 45018 8852 85% 49 268415 923 17%
c p 108.48 782 63 14 1049 50007 15745 82% 50 268415 923 17%
c - 109.68 781 62 15 1049 51374 9266 82% 49 268415 923 17%
c O 111.35 781 58 15 1050 55021 11642 80% 46 268415 923 17%
c 
c  seconds    reductions     redundant   irredundant
c           MB     restarts         trail       variables
c            level      conflicts       glue        remaining
c 
c - 113.28 781 54 16 1052 58232 9360 79% 44 268415 923 17%
c ] 115.94 781 50 16 1056 63006 12853 78% 40 268415 923 17%
c { 115.94 781 27 16 1056 63006 12853 67% 17 268415 923 17%
c - 121.17 782 27 17 1262 65520 9568 67% 17 268415 923 17%
c B 121.50 782 27 17 1262 66022 9854 67% 17 268415 923 17%
c } 126.83 782 27 17 1396 68491 11588 67% 17 268415 923 17%
c 1 126.83 782 27 17 1396 68491 11588 67% 17 268415 923 17%
c 
c --- [ writing output ] -----------------------------------------------------
c 
c writing simplified CNF to DIMACS file 'simp/23.cubes725.adj.simp1'
c * 126.83 782 27 17 1396 68491 11588 67% 17 268415 923 17%
c opening file to write 'simp/23.cubes725.adj.simp1'
c writing 'p cnf 5320 268415' header
c closing file 'simp/23.cubes725.adj.simp1'
c after writing 116686689 bytes 111.3 MB
c wrote 268415 clauses in 0.93 seconds process time
c 
c --- [ writing extension ] --------------------------------------------------
c 
c writing extension stack to 'simp/23.cubes725.adj.ext1'
c opening file to write 'simp/23.cubes725.adj.ext1'
c closing file 'simp/23.cubes725.adj.ext1'
c after writing 66021 bytes 0.1 MB
c wrote 2936 witnesses in 0.00 seconds process time
c 
c --- [ result ] -------------------------------------------------------------
c 
s SATISFIABLE
c 
c --- [ run-time profiling ] -------------------------------------------------
c 
c process time taken by individual solving procedures
c (percentage relative to process time for solving)
c 
c        98.53   83.14% search
c        68.13   57.49% unstable
c        28.21   23.80% stable
c        19.98   16.86% simplify
c        12.32   10.40% probe
c         8.32    7.02% parse
c         4.48    3.78% vivify
c         1.84    1.56% elim
c         1.69    1.43% walk
c         0.50    0.42% lucky
c         0.20    0.17% subsume
c         0.17    0.15% ternary
c   =================================
c       118.51   92.75% solve
c 
c last line shows process time for solving
c (percentage relative to total process time)
c 
c --- [ statistics ] ---------------------------------------------------------
c 
c chronological:             11910        17.39 %  of conflicts
c conflicts:                 68491       577.93    per second
c decisions:                151920      1281.91    per second
c eliminated:                  981        18.44 %  of all variables
c fixed:                       573        10.77 %  of all variables
c learned:                   67000        97.82 %  per conflict
c learned_lits:           12343158       100.00 %  learned literals
c minimized:                     0         0.00 %  learned literals
c shrunken:                6830974        55.34 %  learned literals
c minishrunken:            1169768         9.48 %  learned literals
c propagations:            5831755         0.05 M  per second
c reduced:                   36464        53.24 %  per conflict
c rephased:                     11      6226.45    interval
c restarts:                   1396        49.06    interval
c stabilizing:                   3        61.33 %  of conflicts
c substituted:                   6         0.11 %  of all variables
c subsumed:                  19799         0.98 %  of all clauses
c strengthened:               3535         0.18 %  of all clauses
c ternary:                    3915         0.80 %  of resolved
c vivified:                     21         0.00 %  of all clauses
c walked:                        2     34245.50    interval
c weakened:                   2363         3.07    average size
c 
c seconds are measured in process time for solving
c 
c --- [ resources ] ----------------------------------------------------------
c 
c total process time since initialization:       127.77    seconds
c total real time since initialization:          128.32    seconds
c maximum resident set size of process:          900.63    MB
c 
c --- [ shutting down ] ------------------------------------------------------
c 
c exit 10
WARNING! DIMACS header mismatch: wrong number of variables.
============================[ Problem Statistics ]=============================
|                                                                             |
|  Number of variables:          5282                                         |
|  Number of clauses:          268417                                         |
|  Parse time:                   1.58 s                                       |
|  Simplification time:          0.03 s                                       |
|                                                                             |
============================[ Search Statistics ]====================================================
| Conflicts |          ORIGINAL         |          LEARNT          | Num Sols |      SUBGRAPHS      |
|           |    Vars  Clauses Literals |    Limit  Clauses Lit/Cl |          | Canonical Noncanon. |
=====================================================================================================
|       198 |    5205   268515 25772946 |     2000      198     42 |        0 |        38        98 |
|       457 |    5205   268624 25775166 |     2000      457     35 |        0 |        85       207 |
|       824 |    5205   268766 25777849 |     2000      824     46 |        0 |       136       349 |
|      1270 |    5205   268875 25779785 |     2000     1270     55 |        0 |       184       458 |
|      1840 |    5205   268939 25781001 |     2000     1840     62 |        0 |       214       522 |
|      3478 |    5205   269818 25796505 |     3600     2478     32 |        0 |       503      1401 |
|      4693 |    5205   269894 25798009 |     5000     1893     21 |        0 |       558      1477 |
|      6647 |    5205   270140 25803344 |     5000     3847     48 |        0 |       654      1723 |
|     13758 |    5205   274689 25891753 |     7553     5311     18 |        0 |      2064      6272 |
|     18752 |    5205   275839 25910101 |     8786     6538     38 |        0 |      2348      7422 |
|     26445 |    5205   277766 25942139 |     9998     9843     43 |        0 |      2943      9349 |
|     42591 |    5205   285263 26064170 |    13612     9203     39 |        0 |      4871     16846 |
|     61700 |    5205   291398 26167953 |    16012    14112     43 |        0 |      6366     22981 |
|     86316 |    5205   296553 26256018 |    19603    12919     28 |        0 |      7318     28136 |
|    125740 |    5196   306785 26405690 |    23218    21158     39 |        0 |      9451     38368 |
|    177215 |    5196   314471 26525890 |    28019    22634     41 |        0 |     11646     46054 |
|    247951 |    5196   319523 26620182 |    34013    17364     18 |        0 |     12773     51106 |
|    389323 |    5196   362369 27234252 |    42413    27136     30 |        0 |     22517     93952 |
=====================================================================================================
Number of solutions   : 0
Canonical subgraphs   : 33502          (20 /sec)
          order  3    : 1              (200000 /sec)
          order  4    : 1              (500000 /sec)
          order  5    : 1              (200000 /sec)
          order  6    : 1              (55556 /sec)
          order  7    : 1              (8929 /sec)
          order  8    : 2              (1380 /sec)
          order  9    : 7              (353 /sec)
          order 10    : 29             (107 /sec)
          order 11    : 156            (38 /sec)
          order 12    : 1190           (17 /sec)
          order 13    : 5542           (15 /sec)
          order 14    : 25184          (22 /sec)
          order 15    : 822            (19 /sec)
          order 16    : 430            (17 /sec)
          order 17    : 114            (17 /sec)
          order 18    : 21             (17 /sec)
          order 19    : 0              (-nan /sec)
          order 20    : 0              (-nan /sec)
          order 21    : 0              (-nan /sec)
Noncanonical subgraphs: 156120         (256 /sec)
          order  3    : 0              (-nan /sec)
          order  4    : 0              (-nan /sec)
          order  5    : 0              (-nan /sec)
          order  6    : 0              (-nan /sec)
          order  7    : 0              (-nan /sec)
          order  8    : 0              (-nan /sec)
          order  9    : 0              (-nan /sec)
          order 10    : 0              (-nan /sec)
          order 11    : 0              (-nan /sec)
          order 12    : 0              (-nan /sec)
          order 13    : 22181          (3572 /sec)
          order 14    : 64311          (872 /sec)
          order 15    : 68582          (131 /sec)
          order 16    : 795            (162 /sec)
          order 17    : 247            (125 /sec)
          order 18    : 4              (53 /sec)
          order 19    : 0              (-nan /sec)
          order 20    : 0              (-nan /sec)
Canonicity checking   : 1661.72 s
Noncanonicity checking: 610.059 s
Total canonicity time : 2271.78 s
database reductions   : 40
restarts              : 1181
conflicts             : 564502         (224 /sec)
decisions             : 891366         (0.00 % random) (353 /sec)
propagations          : 28813452       (11413 /sec)
conflict literals     : 40282389       (53.57 % deleted)
actual reward         : 0.217191
Memory used           : 382.00 MB
CPU time              : 2524.54 s

UNSATISFIABLE
